155 153 147 148 152 149 150 151 141 140 139 138 137 130 129 128 127 126 125 124 69 70 68 67 66 65 72 71 123 122 121 120 118 119 73 74 75 76 64 63 61 60 59 58 57 81 82 83 56 55 53 54 52 50 51 84 86 85 91 92 93 90 87 80 79 62 78 77 88 89 94 95 96 97 98 102 101 100 99 552 553 554 555 45 46 49 48 47 44 43 42 39 41 40 38 37 36 33 34 35 558 557 556 551 550 559 560 561 562 549 548 564 563 565 566 567 475 476 477 478 479 480 481 482 483 484 485 486 487 535 536 534 488 533 532 489 531 530 233 232 234 235 236 528 529 490 491 492 493 525 524 494 495 471 472 473 474 570 569 568 20 19 18 17 16 15 14 13 12 21 24 25 26 27 28 29 30 32 31 22 23 11 10 9 8 7 6 5 4 3 2 1 0 573 572 571 460 459 458 457 456 455 454 439 443 444 445 442 446 447 448 449 450 441 440 453 452 461 462 463 464 465 466 467 468 469 470 496 497 519 518 520 521 522 523 526 527 512 511 510 509 513 514 515 516 517 498 499 500 501 502 503 504 505 308 309 310 311 451 312 313 316 314 315 374 373 322 323 324 325 326 327 328 329 366 342 365 367 368 369 370 372 371 396 395 375 376 377 378 379 380 381 431 433 434 435 436 438 437 432 430 429 428 427 426 423 421 420 422 424 425 382 386 387 388 389 390 392 391 393 394 397 398 399 407 408 385 383 384 409 405 406 404 400 403 402 401 360 359 358 357 354 355 356 412 411 410 418 419 417 416 415 414 413 353 352 351 350 349 348 347 362 361 363 364 346 345 344 343 341 340 330 331 332 333 339 338 337 336 335 334 283 284 285 286 287 280 281 282 279 278 277 276 288 289 290 291 292 275 274 273 272 271 268 269 270 293 294 295 296 267 266 265 264 263 262 261 260 259 258 299 298 297 321 320 319 317 318 306 305 307 506 507 508 302 301 303 304 300 257 256 255 253 254 252 251 250 249 248 241 242 243 240 237 238 239 244 245 247 246 216 217 215 214 213 212 211 210 209 223 224 222 221 220 218 219 226 225 231 230 229 228 227 189 190 191 192 193 194 195 196 197 205 206 207 208 202 204 203 165 201 200 199 198 184 185 183 181 180 179 178 182 186 188 187 538 537 539 540 176 177 175 172 174 173 108 109 107 542 541 543 544 545 546 547 103 104 105 106 117 116 115 114 112 111 110 170 171 169 168 162 163 167 166 164 154 160 161 113 131 132 133 134 135 136 144 143 142 146 145 158 157 159 156